[2026-03-24T00:33:53.597Z] Pipeline "set_set_set_s006_g008" → 2026_03_24_00_33_53_set_set_set_s006_g008_max.sol
Set parameter WLSAccessID
Set parameter WLSSecret
Set parameter LicenseID to value 2792458
Set parameter LogFile to value "gurobi.log"
Using license file /root/gurobi.lic
Academic license 2792458 - for non-commercial use only - registered to an___@studenti.unipg.it

Gurobi Optimizer version 13.0.1 build v13.0.1rc0 (linux64 - "Ubuntu 24.04.4 LTS")
Copyright (c) 2026, Gurobi Optimization, LLC

Warning: Duplicate section found (read 'binary') - Is a variable name equal to an LP file format keyword?
Warning: Duplicate section found (read 'binary') - Is a variable name equal to an LP file format keyword?
Warning: Duplicate section found (read 'binary') - Is a variable name equal to an LP file format keyword?
Warning: Duplicate section found (read 'binary') - Is a variable name equal to an LP file format keyword?
Warning: Duplicate section found (read 'binary') - Is a variable name equal to an LP file format keyword?
Warning: Duplicate section found (read 'binary') - Is a variable name equal to an LP file format keyword?
Warning: Duplicate section found (read 'binary') - Is a variable name equal to an LP file format keyword?
Warning: Duplicate section found (read 'binary') - Is a variable name equal to an LP file format keyword?
Warning: Duplicate section found (read 'binary') - Is a variable name equal to an LP file format keyword?
Warning: Duplicate section found (read 'binary') - Is a variable name equal to an LP file format keyword?
Warning: Further warnings of this type will be omitted.
Read LP format model from file /root/bgw/data/uploads/2026_03_24_00_33_53_set_set_set_s006_g008_max.lp
Reading time = 0.00 seconds
: 579 rows, 111 columns, 1624 nonzeros

Using Gurobi shared library /opt/gurobi1301/linux64/lib/libgurobi.so.13.0.1

CPU model: AMD EPYC-Genoa Processor, instruction set [SSE2|AVX|AVX2|AVX512]
Thread count: 16 physical cores, 16 logical processors, using up to 16 threads

Academic license 2792458 - for non-commercial use only - registered to an___@studenti.unipg.it
Optimize a model with 579 rows, 111 columns and 1624 nonzeros (Max)
Model fingerprint: 0xfa79f363
Model has 14 linear objective coefficients
Variable types: 25 continuous, 86 integer (86 binary)
Coefficient statistics:
  Matrix range     [1e+00, 1e+01]
  Objective range  [1e+00, 1e+00]
  Bounds range     [1e+00, 1e+00]
  RHS range        [1e+00, 1e+01]

Found heuristic solution: objective 14.0000000
Presolve removed 214 rows and 35 columns
Presolve time: 0.00s
Presolved: 365 rows, 76 columns, 1151 nonzeros
Variable types: 0 continuous, 76 integer (69 binary)
Found heuristic solution: objective 17.0000000

Root relaxation: objective 6.500000e+01, 46 iterations, 0.00 seconds (0.00 work units)

    Nodes    |    Current Node    |     Objective Bounds      |     Work
 Expl Unexpl |  Obj  Depth IntInf | Incumbent    BestBd   Gap | It/Node Time

     0     0   65.00000    0   24   17.00000   65.00000   282%     -    0s
H    0     0                      25.0000000   65.00000   160%     -    0s
H    0     0                      28.0000000   65.00000   132%     -    0s
H    0     0                      34.0000000   65.00000  91.2%     -    0s
H    0     0                      37.0000000   65.00000  75.7%     -    0s
     0     0   65.00000    0   26   37.00000   65.00000  75.7%     -    0s
     0     0   65.00000    0   23   37.00000   65.00000  75.7%     -    0s
     0     0   65.00000    0   23   37.00000   65.00000  75.7%     -    0s
H    0     0                      39.0000000   65.00000  66.7%     -    0s
     0     0   65.00000    0   25   39.00000   65.00000  66.7%     -    0s
     0     0   65.00000    0   22   39.00000   65.00000  66.7%     -    0s
     0     0   65.00000    0   22   39.00000   65.00000  66.7%     -    0s
     0     0   64.33333    0   25   39.00000   64.33333  65.0%     -    0s
     0     0   64.33333    0   17   39.00000   64.33333  65.0%     -    0s
     0     0   62.00000    0   27   39.00000   62.00000  59.0%     -    0s
     0     0   62.00000    0   18   39.00000   62.00000  59.0%     -    0s
     0     0   61.11111    0   25   39.00000   61.11111  56.7%     -    0s
     0     0   61.11111    0   16   39.00000   61.11111  56.7%     -    0s
     0     0   61.00000    0   26   39.00000   61.00000  56.4%     -    0s
     0     0   60.00000    0   28   39.00000   60.00000  53.8%     -    0s
     0     0   60.00000    0   25   39.00000   60.00000  53.8%     -    0s
     0     0   59.50000    0   25   39.00000   59.50000  52.6%     -    0s
     0     0   59.50000    0   24   39.00000   59.50000  52.6%     -    0s
     0     2   59.50000    0   24   39.00000   59.50000  52.6%     -    0s

Cutting planes:
  Gomory: 6
  Cover: 12
  MIR: 6
  StrongCG: 3
  Inf proof: 13
  Zero half: 2

Explored 2778 nodes (36944 simplex iterations) in 0.25 seconds (0.21 work units)
Thread count was 16 (of 16 available processors)

Solution count 7: 39 37 34 ... 14

Optimal solution found (tolerance 1.00e-04)
Best objective 3.900000000000e+01, best bound 3.900000000000e+01, gap 0.0000%

Wrote result file '/root/bgw/data/results/2026_03_24_00_33_53_set_set_set_s006_g008_max.sol'

